
Gurobi 9.0.3 (win64) logging started Sat Jan  1 08:44:55 2022

Changed value of parameter LogFile to Results/sslp1_30_70_200_var_BendersBnC.log
   Prev:   Default: 
Changed value of parameter Heuristics to 0.0
   Prev: 0.05  Min: 0.0  Max: 1.0  Default: 0.05
Changed value of parameter lazyConstraints to 1
   Prev: 0  Min: 0  Max: 1  Default: 0
Changed value of parameter timeLimit to 7175.091908216476
   Prev: inf  Min: 0.0  Max: inf  Default: inf
Gurobi Optimizer version 9.0.3 build v9.0.3rc0 (win64)
Optimize a model with 3367 rows, 260 columns and 134565 nonzeros
Model fingerprint: 0x0ace5c73
Variable types: 230 continuous, 30 integer (30 binary)
Coefficient statistics:
  Matrix range     [1e-13, 6e+05]
  Objective range  [5e-03, 4e+01]
  Bounds range     [1e+00, 1e+00]
  RHS range        [4e-15, 2e+04]
Warning: Model contains large matrix coefficient range
         Consider reformulating model or setting NumericFocus parameter
         to avoid numerical issues.
Presolve added 0 rows and 9 columns
Presolve removed 748 rows and 0 columns
Presolve time: 0.08s
Presolved: 2619 rows, 269 columns, 67634 nonzeros
Variable types: 238 continuous, 31 integer (30 binary)

Root relaxation: objective -8.215957e+02, 609 iterations, 0.15 seconds

    Nodes    |    Current Node    |     Objective Bounds      |     Work
 Expl Unexpl |  Obj  Depth IntInf | Incumbent    BestBd   Gap | It/Node Time

     0     0 -821.59572    0   25          - -821.59572      -     -    0s
     0     0 -819.25688    0   19          - -819.25688      -     -    0s
     0     0 -818.79938    0   17          - -818.79938      -     -    0s
     0     0 -818.76314    0   16          - -818.76314      -     -    0s
     0     0 -818.76270    0   16          - -818.76270      -     -    0s
     0     0 -817.88412    0   18          - -817.88412      -     -    0s
     0     0 -817.55831    0   16          - -817.55831      -     -    0s
     0     0 -817.34493    0   19          - -817.34493      -     -    0s
     0     0 -817.10499    0   17          - -817.10499      -     -    0s
     0     0 -816.91280    0   18          - -816.91280      -     -    0s
     0     0 -816.84747    0   17          - -816.84747      -     -    0s
     0     0 -816.80344    0   16          - -816.80344      -     -    0s
     0     0 -816.77325    0   18          - -816.77325      -     -    0s
     0     0 -816.66572    0   15          - -816.66572      -     -    0s
     0     0 -816.58684    0   15          - -816.58684      -     -    1s
     0     0 -816.53981    0   17          - -816.53981      -     -    1s
     0     0 -816.52398    0   15          - -816.52398      -     -    1s
     0     0 -816.51732    0   16          - -816.51732      -     -    1s
     0     0 -816.51182    0   16          - -816.51182      -     -    1s
     0     0 -816.50143    0   16          - -816.50143      -     -    1s
     0     0 -816.50012    0   17          - -816.50012      -     -    1s
     0     0 -816.49827    0   17          - -816.49827      -     -    1s
     0     0 -816.49695    0   17          - -816.49695      -     -    1s
     0     0 -816.49657    0   16          - -816.49657      -     -    1s
     0     0 -816.10495    0   18          - -816.10495      -     -    1s
     0     0 -815.98041    0   18          - -815.98041      -     -    1s
     0     0 -815.87058    0   20          - -815.87058      -     -    1s
     0     0 -815.84432    0   20          - -815.84432      -     -    1s
     0     0 -815.82166    0   19          - -815.82166      -     -    1s
     0     0 -815.79171    0   20          - -815.79171      -     -    1s
     0     0 -815.75712    0   20          - -815.75712      -     -    1s
     0     0 -815.74262    0   21          - -815.74262      -     -    1s
     0     0 -815.73282    0   20          - -815.73282      -     -    1s
     0     0 -815.72606    0   20          - -815.72606      -     -    1s
     0     0 -815.72315    0   19          - -815.72315      -     -    1s
     0     0 -815.71903    0   21          - -815.71903      -     -    1s
     0     0 -815.70387    0   20          - -815.70387      -     -    1s
     0     0 -815.69674    0   20          - -815.69674      -     -    1s
     0     0 -815.68843    0   20          - -815.68843      -     -    1s
     0     0 -815.68801    0   20          - -815.68801      -     -    1s
     0     0 -815.58096    0   14          - -815.58096      -     -    1s
     0     0 -815.51208    0   17          - -815.51208      -     -    1s
     0     0 -815.48262    0   17          - -815.48262      -     -    1s
     0     0 -815.46808    0   18          - -815.46808      -     -    1s
     0     0 -815.45325    0   16          - -815.45325      -     -    1s
     0     0 -815.44454    0   17          - -815.44454      -     -    1s
     0     0 -815.43520    0   18          - -815.43520      -     -    1s
     0     0 -815.42509    0   17          - -815.42509      -     -    2s
     0     0 -815.42205    0   17          - -815.42205      -     -    2s
     0     0 -815.41837    0   17          - -815.41837      -     -    2s
     0     0 -815.41699    0   17          - -815.41699      -     -    2s
     0     0 -815.32108    0   19          - -815.32108      -     -    2s
     0     0 -815.26739    0   18          - -815.26739      -     -    2s
     0     0 -815.24960    0   18          - -815.24960      -     -    2s
     0     0 -815.23260    0   20          - -815.23260      -     -    2s
     0     0 -815.22516    0   19          - -815.22516      -     -    2s
     0     0 -815.21342    0   19          - -815.21342      -     -    2s
     0     0 -815.20543    0   19          - -815.20543      -     -    2s
     0     0 -815.19812    0   19          - -815.19812      -     -    2s
     0     0 -815.19317    0   18          - -815.19317      -     -    2s
     0     0 -815.19197    0   20          - -815.19197      -     -    2s
     0     0 -815.13497    0   19          - -815.13497      -     -    2s
     0     0 -815.11628    0   20          - -815.11628      -     -    2s
     0     0 -815.09652    0   19          - -815.09652      -     -    2s
     0     0 -815.08406    0   18          - -815.08406      -     -    2s
     0     0 -815.07857    0   19          - -815.07857      -     -    2s
     0     0 -815.06717    0   19          - -815.06717      -     -    2s
     0     0 -815.06280    0   21          - -815.06280      -     -    2s
     0     0 -815.06045    0   18          - -815.06045      -     -    2s
     0     0 -815.05988    0   19          - -815.05988      -     -    2s
     0     0 -814.99302    0   19          - -814.99302      -     -    2s
     0     0 -814.96783    0   17          - -814.96783      -     -    2s
     0     0 -814.95530    0   18          - -814.95530      -     -    2s
     0     0 -814.94634    0   20          - -814.94634      -     -    2s
     0     0 -814.93654    0   20          - -814.93654      -     -    2s
     0     0 -814.92928    0   18          - -814.92928      -     -    2s
     0     0 -814.92428    0   17          - -814.92428      -     -    2s
     0     0 -814.92176    0   18          - -814.92176      -     -    3s
     0     0 -814.92060    0   17          - -814.92060      -     -    3s
     0     0 -814.91122    0   19          - -814.91122      -     -    3s
     0     0 -814.89990    0   19          - -814.89990      -     -    3s
     0     0 -814.89353    0   19          - -814.89353      -     -    3s
     0     0 -814.88890    0   19          - -814.88890      -     -    3s
     0     0 -814.88765    0   21          - -814.88765      -     -    3s
     0     0 -814.87425    0   17          - -814.87425      -     -    3s
     0     0 -814.85533    0   19          - -814.85533      -     -    3s
     0     0 -814.84192    0   18          - -814.84192      -     -    3s
     0     0 -814.83671    0   17          - -814.83671      -     -    3s
     0     0 -814.83038    0   17          - -814.83038      -     -    3s
     0     0 -814.82758    0   17          - -814.82758      -     -    3s
     0     0 -814.82429    0   18          - -814.82429      -     -    3s
     0     0 -814.82285    0   19          - -814.82285      -     -    3s
     0     0 -814.78621    0   19          - -814.78621      -     -    3s
     0     0 -814.77585    0   18          - -814.77585      -     -    3s
     0     0 -814.76812    0   19          - -814.76812      -     -    3s
     0     0 -814.76002    0   18          - -814.76002      -     -    3s
     0     0 -814.75627    0   17          - -814.75627      -     -    3s
     0     0 -814.75362    0   20          - -814.75362      -     -    3s
     0     0 -814.74760    0   18          - -814.74760      -     -    3s
     0     0 -814.74403    0   18          - -814.74403      -     -    3s
     0     0 -814.74197    0   19          - -814.74197      -     -    3s
     0     0 -814.73958    0   19          - -814.73958      -     -    3s
     0     0 -814.73901    0   19          - -814.73901      -     -    3s
     0     0 -814.72623    0   16          - -814.72623      -     -    3s
     0     0 -814.71020    0   19          - -814.71020      -     -    3s
     0     0 -814.70858    0   16          - -814.70858      -     -    3s
     0     0 -814.70426    0   18          - -814.70426      -     -    4s
     0     0 -814.69413    0   18          - -814.69413      -     -    4s
     0     0 -814.68874    0   18          - -814.68874      -     -    4s
     0     0 -814.68570    0   19          - -814.68570      -     -    4s
     0     0 -814.68412    0   17          - -814.68412      -     -    4s
     0     0 -814.67300    0   17          - -814.67300      -     -    4s
     0     0 -814.66710    0   19          - -814.66710      -     -    4s
     0     0 -814.66231    0   19          - -814.66231      -     -    4s
     0     0 -814.65974    0   19          - -814.65974      -     -    4s
     0     0 -814.65668    0   19          - -814.65668      -     -    4s
     0     0 -814.65423    0   19          - -814.65423      -     -    4s
     0     0 -814.64969    0   19          - -814.64969      -     -    4s
     0     0 -814.64870    0   19          - -814.64870      -     -    4s
     0     0 -814.63819    0   19          - -814.63819      -     -    4s
     0     0 -814.61160    0   19          - -814.61160      -     -    4s
     0     0 -814.60759    0   19          - -814.60759      -     -    4s
     0     0 -814.60094    0   19          - -814.60094      -     -    4s
     0     0 -814.59442    0   20          - -814.59442      -     -    4s
     0     0 -814.59011    0   19          - -814.59011      -     -    4s
     0     0 -814.58748    0   21          - -814.58748      -     -    4s
     0     0 -814.58303    0   21          - -814.58303      -     -    4s
     0     0 -814.57962    0   21          - -814.57962      -     -    4s
     0     0 -814.57822    0   21          - -814.57822      -     -    4s
     0     0 -814.56626    0   20          - -814.56626      -     -    4s
     0     0 -814.56091    0   18          - -814.56091      -     -    4s
     0     0 -814.55732    0   20          - -814.55732      -     -    4s
     0     0 -814.55465    0   21          - -814.55465      -     -    4s
     0     0 -814.55246    0   21          - -814.55246      -     -    4s
     0     0 -814.55052    0   20          - -814.55052      -     -    4s
     0     0 -814.54718    0   18          - -814.54718      -     -    4s
     0     0 -814.54032    0   20          - -814.54032      -     -    4s
     0     0 -814.53871    0   19          - -814.53871      -     -    5s
     0     0 -814.52539    0   21          - -814.52539      -     -    5s
     0     0 -814.51732    0   18          - -814.51732      -     -    5s
     0     0 -814.51662    0   18          - -814.51662      -     -    5s
     0     0 -814.50986    0   17          - -814.50986      -     -    5s
     0     0 -814.50523    0   18          - -814.50523      -     -    5s
     0     0 -814.50427    0   19          - -814.50427      -     -    5s
     0     0 -814.50279    0   19          - -814.50279      -     -    5s
     0     0 -814.49132    0   18          - -814.49132      -     -    5s
     0     0 -814.48835    0   20          - -814.48835      -     -    5s
     0     0 -814.48624    0   19          - -814.48624      -     -    5s
     0     0 -814.48370    0   20          - -814.48370      -     -    5s
     0     0 -814.48348    0   19          - -814.48348      -     -    5s
     0     0 -814.47421    0   19          - -814.47421      -     -    5s
     0     0 -814.46729    0   20          - -814.46729      -     -    5s
     0     0 -814.46471    0   21          - -814.46471      -     -    5s
     0     0 -814.46309    0   20          - -814.46309      -     -    5s
     0     0 -814.46123    0   19          - -814.46123      -     -    5s
     0     0 -814.45593    0   19          - -814.45593      -     -    5s
     0     0 -814.45471    0   18          - -814.45471      -     -    5s
     0     0 -814.45308    0   19          - -814.45308      -     -    5s
     0     0 -814.45308    0   19          - -814.45308      -     -    5s
     0     2 -814.45308    0   19          - -814.45308      -     -    6s
*   50    50              24    -449.5049895 -814.39291  81.2%  75.6    8s
    59    55 -804.29302   26    2 -449.50499 -814.39291  81.2%  74.4   12s
*   68    58              31    -543.3299867 -814.39291  49.9%  71.6   16s
*   75    58              31    -581.1749850 -814.39291  40.1%  72.3   20s
    88    65 -811.85857    3    7 -581.17498 -814.22581  40.1%  78.6   26s
   139   114 -796.36513   29    2 -581.17498 -814.22581  40.1%  65.9   30s
   159   113 -810.94737    6   10 -581.17498 -814.13423  40.1%  68.3   39s
   167   115 -810.86934    7   12 -581.17498 -814.13423  40.1%  70.1   43s
   174   117 -810.70344    8   12 -581.17498 -814.13423  40.1%  72.1   45s
   191   128 -809.57773   13    8 -581.17498 -814.13423  40.1%  71.8   50s
   205   138 -808.43786   17    5 -581.17498 -814.13423  40.1%  69.6   56s
   216   142 -807.75762   19    6 -581.17498 -814.13423  40.1%  68.0   61s
*  229   148              30    -597.3199830 -814.13423  36.3%  66.7   71s
   247   153 -806.14749   27    2 -597.31998 -814.13423  36.3%  66.3   77s
   253   156     cutoff   30      -597.31998 -814.13423  36.3%  65.9   82s
   262   159 -806.20446   13    6 -597.31998 -814.13423  36.3%  66.5   86s
   272   163 -805.78848   15    5 -597.31998 -814.13423  36.3%  66.2   91s
   284   165     cutoff   30      -597.31998 -813.25670  36.2%  67.5   95s
   306   181 -785.77707   11    - -597.31998 -813.25670  36.2%  68.7  103s
   314   180 -785.76332   11    2 -597.31998 -813.25670  36.2%  68.5  105s
   329   185 -807.91327   13    4 -597.31998 -813.25670  36.2%  67.2  115s
   348   186 -783.73366   14    - -597.31998 -813.25670  36.2%  69.1  121s
   355   199 -802.56947   14    2 -597.31998 -813.25670  36.2%  69.0  127s
   376   215 -782.13309   16    2 -597.31998 -813.25670  36.2%  67.2  130s
   392   223 -802.75282   19    3 -597.31998 -813.25670  36.2%  65.9  136s
   397   226 -808.24914   22    5 -597.31998 -813.25670  36.2%  65.6  140s
   416   236 -755.39316   22    - -597.31998 -813.25670  36.2%  64.7  146s
*  424   238              30    -622.6099843 -813.25670  30.6%  64.7  149s
   431   245 -802.75176   22    4 -622.60998 -813.25670  30.6%  64.5  153s
   445   246 -779.08848   28    3 -622.60998 -813.25670  30.6%  64.7  156s
   452   250 -746.64041   28    2 -622.60998 -813.25670  30.6%  65.0  160s
   474   260     cutoff   30      -622.60998 -812.76481  30.5%  65.2  165s
   511   281 -805.91799   25    2 -622.60998 -812.76481  30.5%  64.4  173s
*  517   282              30    -635.1899840 -812.76481  28.0%  65.1  175s
   533   290 -806.62684   10    3 -635.18998 -812.76481  28.0%  66.6  184s
   538   291     cutoff   30      -635.18998 -812.50022  27.9%  66.3  185s
   570   295     cutoff   30      -635.18998 -812.42453  27.9%  65.7  195s
   580   302 -805.97753   11    2 -635.18998 -812.40090  27.9%  66.0  201s
   599   307     cutoff   30      -635.18998 -812.40090  27.9%  65.6  206s
   622   327     cutoff   30      -635.18998 -811.99390  27.8%  65.2  214s
   645   329     cutoff   30      -635.18998 -811.87908  27.8%  65.0  222s
*  651   330              30    -638.6649839 -811.87908  27.1%  65.4  224s
   657   327     cutoff   30      -638.66498 -811.85165  27.1%  65.7  226s
   666   340 -804.70738   15    5 -638.66498 -811.84452  27.1%  66.8  231s
   690   350 -772.76887   30    - -638.66498 -811.62587  27.1%  66.3  237s
   701   352     cutoff   30      -638.66498 -811.56503  27.1%  66.2  240s
   726   355     cutoff   30      -638.66498 -811.55613  27.1%  66.1  250s
   743   356     cutoff   30      -638.66498 -811.49008  27.1%  66.5  259s
   752   372 -804.83791    9    2 -638.66498 -811.48680  27.1%  67.0  262s
   779   381 -810.90561   14    8 -638.66498 -811.48680  27.1%  65.7  268s
   783   387 -775.52200   25    2 -638.66498 -811.47681  27.1%  65.7  270s
   798   405 -804.74357   19    2 -638.66498 -811.47681  27.1%  65.4  276s
   818   404 -769.13896   29    2 -638.66498 -811.47414  27.1%  64.7  281s
   827   408 -808.47396   26    2 -638.66498 -811.42843  27.1%  64.9  285s
   840   404     cutoff   30      -638.66498 -811.37162  27.0%  65.1  293s
   857   408     cutoff   30      -638.66498 -811.30287  27.0%  65.7  298s
   867   421 -809.49861   20    4 -638.66498 -811.18517  27.0%  65.9  303s
   890   424 -809.36308   25    4 -638.66498 -811.13295  27.0%  65.2  312s
   912   424     cutoff   30      -638.66498 -811.10029  27.0%  66.3  318s
   923   443 -803.62055   12    2 -638.66498 -811.04559  27.0%  66.5  324s
   955   445 -768.34671   29    2 -638.66498 -810.95027  27.0%  65.7  334s
   965   448 -806.06823   15    - -638.66498 -810.92316  27.0%  65.7  338s
   970   459     cutoff   30      -638.66498 -810.90387  27.0%  65.9  344s
  1001   459     cutoff   30      -638.66498 -810.84648  27.0%  65.8  355s
  1017   479 -804.93542   17    2 -638.66498 -810.73492  26.9%  66.2  362s
  1044   483 -804.91769    8    2 -638.66498 -810.71909  26.9%  65.5  367s
  1050   499     cutoff   30      -638.66498 -810.64963  26.9%  65.8  373s
  1076   496     cutoff   30      -638.66498 -810.59942  26.9%  65.7  379s
  1083   497 -773.87746   30    - -638.66498 -810.59062  26.9%  65.7  382s
  1095   502     cutoff   30      -638.66498 -810.48641  26.9%  65.8  391s
  1129   516     cutoff   30      -638.66498 -810.48285  26.9%  65.8  400s
  1140   524 -804.79949   20    2 -638.66498 -810.43769  26.9%  65.8  408s
  1147   532     cutoff   30      -638.66498 -810.42496  26.9%  65.9  412s
  1176   541     cutoff   30      -638.66498 -810.35407  26.9%  65.3  422s
  1200   548 -773.55825   23    2 -638.66498 -810.15129  26.9%  65.2  432s
  1229   559     cutoff   30      -638.66498 -810.13209  26.8%  64.9  441s
  1241   558     cutoff   30      -638.66498 -810.03935  26.8%  65.2  446s
  1255   565 -727.66028   29    2 -638.66498 -809.93867  26.8%  65.2  454s
  1278   573     cutoff   30      -638.66498 -809.82144  26.8%  65.1  467s
  1293   578 -808.14006   18    7 -638.66498 -809.81152  26.8%  65.2  471s
  1313   584 -803.88536   15    - -638.66498 -809.69351  26.8%  65.3  480s
  1318   603 -693.11953   28    2 -638.66498 -809.66931  26.8%  65.4  486s
  1336   607 -804.50835   16    4 -638.66498 -809.62386  26.8%  65.1  490s
  1355   613 -782.02540   27    3 -638.66498 -809.62386  26.8%  64.9  498s
  1393   618 -707.54927   28    2 -638.66498 -809.62386  26.8%  64.6  516s
  1449   634 -756.92769   29    2 -638.66498 -809.62386  26.8%  64.0  537s
  1490   626 -685.90873   29    2 -638.66498 -809.62386  26.8%  63.9  547s
  1532   639 -726.98287   27    2 -638.66498 -809.62386  26.8%  63.5  573s
  1565   643     cutoff   30      -638.66498 -809.62386  26.8%  63.5  578s
  1570   620     cutoff   30      -638.66498 -809.57206  26.8%  63.6  582s
  1598   632 -802.20764    8    2 -638.66498 -809.57206  26.8%  63.4  596s
  1610   657     cutoff   30      -638.66498 -809.49518  26.7%  63.4  607s
  1647   673 -801.88279   16    2 -638.66498 -809.42452  26.7%  62.7  620s
  1676   682     cutoff   30      -638.66498 -809.42439  26.7%  62.4  629s
  1695   685     cutoff   30      -638.66498 -809.42422  26.7%  62.2  633s
  1701   714 -809.42288   18    3 -638.66498 -809.42422  26.7%  62.2  640s
* 1737   716              30    -645.2799839 -809.42422  25.4%  61.5  644s
  1742   712 -780.63741   27    2 -645.27998 -809.41868  25.4%  61.5  653s
  1760   720     cutoff   30      -645.27998 -809.41714  25.4%  61.8  663s
  1772   716     cutoff   30      -645.27998 -809.39631  25.4%  62.0  674s
  1780   717     cutoff   30      -645.27998 -809.39226  25.4%  62.2  675s
  1788   714 -748.27198   17    - -645.27998 -809.37818  25.4%  62.3  686s
  1801   734 -748.25835   17    2 -645.27998 -809.33433  25.4%  62.6  701s
* 1841   744              30    -649.8399840 -809.28490  24.5%  62.3  712s
  1846   745     cutoff   30      -649.83998 -809.27533  24.5%  62.5  720s
  1868   748     cutoff   30      -649.83998 -809.20269  24.5%  62.6  731s
  1885   754 -719.62411   28    2 -649.83998 -809.13372  24.5%  62.9  740s
  1907   764 -680.12167   29    2 -649.83998 -809.07024  24.5%  62.9  751s
  1929   767     cutoff   30      -649.83998 -809.02125  24.5%  62.9  755s
  1942   765     cutoff   30      -649.83998 -808.99211  24.5%  62.8  764s
  1973   771 -663.05556   29    2 -649.83998 -808.94542  24.5%  62.9  784s
  1997   788     cutoff   30      -649.83998 -808.74522  24.5%  63.0  800s
  2028   811 -804.73213   10    2 -649.83998 -808.66418  24.4%  62.7  815s
  2072   824     cutoff   30      -649.83998 -808.57784  24.4%  62.3  832s
  2085   828     cutoff   30      -649.83998 -808.57588  24.4%  62.3  837s
  2106   842     cutoff   30      -649.83998 -808.47967  24.4%  62.2  849s
  2117   846     cutoff   30      -649.83998 -808.46607  24.4%  62.3  854s
  2146   838     cutoff   30      -649.83998 -808.46026  24.4%  61.9  865s
  2165   852 -789.96307   17    3 -649.83998 -808.43224  24.4%  62.1  884s
  2212   857     cutoff   30      -649.83998 -808.39973  24.4%  61.9  910s
  2238   880     cutoff   30      -649.83998 -808.32407  24.4%  62.1  928s
  2251   882     cutoff   30      -649.83998 -808.25476  24.4%  62.1  930s
  2268   891 -808.25465   14    4 -649.83998 -808.25465  24.4%  62.0  941s
  2312   893     cutoff   30      -649.83998 -808.24884  24.4%  61.6  969s
  2329   900     cutoff   30      -649.83998 -808.23564  24.4%  61.7  976s
  2343   913     cutoff   30      -649.83998 -808.22901  24.4%  61.8  992s
  2374   932 -808.20927   20    3 -649.83998 -808.21362  24.4%  61.8 1010s
  2402   939 -781.94563   26    2 -649.83998 -808.20713  24.4%  61.5 1018s
  2418   940     cutoff   30      -649.83998 -808.20350  24.4%  61.6 1035s
  2447   945     cutoff   30      -649.83998 -808.20258  24.4%  61.7 1055s
  2485   976 -788.98231   11    4 -649.83998 -808.18129  24.4%  61.7 1083s
  2538   983     cutoff   30      -649.83998 -808.16648  24.4%  61.3 1112s
  2558   990     cutoff   30      -649.83998 -808.16142  24.4%  61.4 1120s
  2570   985     cutoff   30      -649.83998 -808.16104  24.4%  61.5 1138s
  2588  1008 -776.19159   26    2 -649.83998 -808.13159  24.4%  61.6 1156s
  2601  1012 -782.84065   25    2 -649.83998 -808.12980  24.4%  61.6 1160s
  2622  1003     cutoff   30      -649.83998 -808.12892  24.4%  61.6 1174s
  2652  1005     cutoff   30      -649.83998 -808.10221  24.4%  61.6 1200s
  2670  1019     cutoff   30      -649.83998 -808.04996  24.3%  61.8 1220s
  2686  1025     cutoff   30      -649.83998 -808.03330  24.3%  61.9 1226s
  2706  1026     cutoff   30      -649.83998 -808.02949  24.3%  61.7 1239s
  2734  1035 -784.60775   29    2 -649.83998 -807.97859  24.3%  61.8 1250s
  2756  1049     cutoff   30      -649.83998 -807.96699  24.3%  61.9 1267s
  2790  1067 -803.11203   22    4 -649.83998 -807.89462  24.3%  61.9 1279s
  2812  1072     cutoff   30      -649.83998 -807.88742  24.3%  61.8 1285s
  2819  1082     cutoff   30      -649.83998 -807.84960  24.3%  61.9 1296s
  2835  1087 -805.31416   12    7 -649.83998 -807.84960  24.3%  61.9 1301s
  2846  1093     cutoff   30      -649.83998 -807.80270  24.3%  61.8 1309s
  2877  1128     cutoff   30      -649.83998 -807.70113  24.3%  61.9 1325s
  2938  1139     cutoff   30      -649.83998 -807.66101  24.3%  61.3 1349s
  2979  1158     cutoff   30      -649.83998 -807.63080  24.3%  61.4 1378s
  3015  1185 -790.17404   17    2 -649.83998 -807.57741  24.3%  61.4 1402s
  3068  1201 -788.94698   17   19 -649.83998 -807.55514  24.3%  61.1 1475s
  3070  1202 -803.55888   14   25 -649.83998 -807.55514  24.3%  61.1 1545s
  3071  1203 -807.27788   27   25 -649.83998 -807.55514  24.3%  61.0 1550s
  3073  1207 -807.55514   10   23 -649.83998 -807.55514  24.3%  61.4 1636s
  3075  1209 -807.55514   11   22 -649.83998 -807.55514  24.3%  61.6 1657s
  3079  1207 -807.55514   12   20 -649.83998 -807.55514  24.3%  61.7 1679s
  3081  1208 -802.65411   12   10 -649.83998 -807.55514  24.3%  61.8 1708s
  3083  1209 -807.55514   13   20 -649.83998 -807.55514  24.3%  61.9 1741s
  3085  1209 -807.55514   13    7 -649.83998 -807.55514  24.3%  62.0 1766s
  3088  1210 -807.55514   14   20 -649.83998 -807.55514  24.3%  62.1 1800s
  3091  1212 -807.55514   14    9 -649.83998 -807.55514  24.3%  62.2 1823s
  3094  1214 -807.55514   15   19 -649.83998 -807.55514  24.3%  62.3 1852s
  3097  1216 -807.55514   15   10 -649.83998 -807.55514  24.3%  62.4 1867s
  3100  1218 -807.55514   16   19 -649.83998 -807.55514  24.3%  62.4 1892s
  3103  1221 -807.55514   16    9 -649.83998 -807.55514  24.3%  62.5 1906s
  3107  1224 -807.55514   17   18 -649.83998 -807.55514  24.3%  62.6 1924s
  3111  1228 -807.55514   17    4 -649.83998 -807.55514  24.3%  62.7 1938s
  3116  1231 -807.55514   18   18 -649.83998 -807.55514  24.3%  62.7 1953s
  3121  1235 -807.55514   18   11 -649.83998 -807.55514  24.3%  62.8 1965s
  3127  1241 -807.55514   19   16 -649.83998 -807.55514  24.3%  62.8 1978s
  3135  1245 -807.55514   20   15 -649.83998 -807.55514  24.3%  63.0 1994s
  3143  1251 -807.55514   21   15 -649.83998 -807.55514  24.3%  63.2 2004s
  3153  1250 -807.55514   22   14 -649.83998 -807.55514  24.3%  63.2 2016s
  3164  1248 -807.55514   23   13 -649.83998 -807.55514  24.3%  63.2 2030s
  3176  1259 -807.55514   24   12 -649.83998 -807.55514  24.3%  63.4 2044s
  3188  1270 -807.55514   25    7 -649.83998 -807.55514  24.3%  63.5 2052s
  3203  1271 -807.55514   27    8 -649.83998 -807.55514  24.3%  63.5 2059s
  3221  1273 -807.55514   29    6 -649.83998 -807.55514  24.3%  63.9 2070s
  3237  1281 -807.55514   32    5 -649.83998 -807.55514  24.3%  64.1 2080s
  3251  1288     cutoff   36      -649.83998 -807.55514  24.3%  64.3 2093s
  3274  1287     cutoff   42      -649.83998 -807.55514  24.3%  64.5 2104s
  3300  1305 -805.90923   30    7 -649.83998 -807.55514  24.3%  64.7 2120s
  3343  1308     cutoff   41      -649.83998 -807.55514  24.3%  64.6 2138s
  3365  1304 -773.44779   41    2 -649.83998 -807.55514  24.3%  64.7 2141s
  3378  1309     cutoff   42      -649.83998 -807.55514  24.3%  64.7 2154s
  3394  1305     cutoff   42      -649.83998 -807.55514  24.3%  64.7 2157s
  3401  1335 -770.97927   29    3 -649.83998 -807.55514  24.3%  64.7 2171s
* 3415  1269              42    -664.2799832 -807.55514  21.6%  64.6 2173s
  3446  1268 -760.13140   42    2 -664.27998 -807.55514  21.6%  64.5 2189s
  3469  1266 -789.97088   39    2 -664.27998 -807.55514  21.6%  64.4 2196s
  3484  1271 -743.43615   42    2 -664.27998 -807.55514  21.6%  64.5 2210s
  3504  1273 -731.76453   43    2 -664.27998 -807.55514  21.6%  64.8 2226s
  3561  1300     cutoff   44      -664.27998 -807.55514  21.6%  64.5 2265s
  3606  1298 -776.18936   41    2 -664.27998 -807.55514  21.6%  64.4 2286s
  3634  1294 -751.31726   42    2 -664.27998 -807.55514  21.6%  64.3 2293s
  3647  1305     cutoff   42      -664.27998 -807.55514  21.6%  64.5 2309s
  3666  1300     cutoff   43      -664.27998 -807.55514  21.6%  64.5 2311s
  3682  1316 -748.68319   42    2 -664.27998 -807.55514  21.6%  64.5 2327s
  3713  1327     cutoff   43      -664.27998 -807.55514  21.6%  64.6 2343s
  3728  1324     cutoff   44      -664.27998 -807.55514  21.6%  64.6 2346s
  3748  1336 -790.14025   29    5 -664.27998 -807.55514  21.6%  64.5 2368s
  3768  1333 -751.37991   37    - -664.27998 -807.55514  21.6%  64.6 2372s
  3802  1352 -726.59172   35    3 -664.27998 -807.55514  21.6%  64.4 2396s
  3854  1352 -718.39696   43    2 -664.27998 -807.55514  21.6%  64.2 2430s
  3878  1352     cutoff   44      -664.27998 -807.55514  21.6%  64.2 2440s
  3906  1377     cutoff   44      -664.27998 -807.55514  21.6%  64.2 2464s
  3970  1378 -683.14229   44    2 -664.27998 -807.55514  21.6%  63.9 2499s
  4010  1397 -786.50418   32    2 -664.27998 -807.55514  21.6%  64.0 2534s
  4055  1395     cutoff   44      -664.27998 -807.55514  21.6%  64.0 2549s
  4091  1416     cutoff   27      -664.27998 -807.55514  21.6%  64.0 2580s
  4188  1422     cutoff   42      -664.27998 -807.55514  21.6%  63.8 2632s
  4240  1430     cutoff   43      -664.27998 -807.55514  21.6%  63.8 2667s
  4306  1452 -707.35419   43    2 -664.27998 -807.55514  21.6%  63.7 2706s
  4380  1447     cutoff   44      -664.27998 -807.45071  21.6%  63.8 2743s
  4443  1464     cutoff   38      -664.27998 -807.29328  21.5%  64.0 2783s
  4476  1459     cutoff   42      -664.27998 -807.09436  21.5%  64.1 2790s
  4514  1477     cutoff   42      -664.27998 -807.08811  21.5%  64.1 2819s
  4590  1485 -769.48492   40    2 -664.27998 -806.77729  21.5%  63.9 2862s
  4650  1481     cutoff   42      -664.27998 -806.66317  21.4%  63.7 2880s
  4688  1482     cutoff   42      -664.27998 -806.66147  21.4%  63.7 2919s
  4765  1501     cutoff   38      -664.27998 -806.38261  21.4%  63.8 2968s
  4830  1493 -749.78846   42    2 -664.27998 -806.21913  21.4%  63.7 2984s
  4885  1504     cutoff   43      -664.27998 -806.19033  21.4%  63.8 3022s
  4925  1503     cutoff   43      -664.27998 -806.18343  21.4%  63.9 3035s
  4965  1505 -737.14302   42    2 -664.27998 -806.03575  21.3%  63.8 3076s
  5046  1508 -729.00046   43    2 -664.27998 -805.49045  21.3%  63.9 3134s
  5136  1517     cutoff   44      -664.27998 -805.40323  21.2%  63.9 3194s
  5218  1517     cutoff   45      -664.27998 -805.10780  21.2%  64.0 3252s
  5289  1524     cutoff   37      -664.27998 -804.75897  21.1%  64.3 3306s
  5388  1533 -729.25059   43    2 -664.27998 -804.54150  21.1%  64.2 3366s
  5489  1541     cutoff   44      -664.27998 -804.30676  21.1%  64.2 3423s
  5529  1537 -725.01121   43    2 -664.27998 -804.25361  21.1%  64.2 3433s
  5576  1567 -730.91906   33    2 -664.27998 -804.17610  21.1%  64.1 3482s
  5617  1566     cutoff   44      -664.27998 -804.06687  21.0%  64.0 3497s
  5679  1561 -747.80860   42    2 -664.27998 -803.89531  21.0%  63.9 3544s
  5738  1558     cutoff   42      -664.27998 -803.40846  20.9%  64.0 3555s
  5787  1564     cutoff   43      -664.27998 -803.36911  20.9%  64.0 3615s
  5848  1558     cutoff   43      -664.27998 -803.01222  20.9%  64.1 3632s
  5914  1577 -713.23102   43    2 -664.27998 -803.00525  20.9%  64.1 3701s
  5991  1583     cutoff   41      -664.27998 -802.89237  20.9%  63.9 3743s
  6057  1603 -781.11527   27    2 -664.27998 -802.66332  20.8%  63.7 3803s
  6127  1601     cutoff   42      -664.27998 -802.39247  20.8%  63.5 3829s
  6188  1598     cutoff   42      -664.27998 -802.31029  20.8%  63.3 3895s
  6241  1596 -781.99327   28    2 -664.27998 -802.01212  20.7%  63.5 3914s
  6296  1593     cutoff   42      -664.27998 -801.76919  20.7%  63.7 3984s
  6456  1587     cutoff   41      -664.27998 -801.20131  20.6%  63.8 4093s
  6510  1586     cutoff   42      -664.27998 -800.94372  20.6%  63.9 4109s
  6587  1644 -779.91222   28    2 -664.27998 -800.83721  20.6%  63.7 4182s
  6661  1659 -753.37478   42    - -664.27998 -800.00581  20.4%  63.6 4202s
  6713  1657     cutoff   42      -664.27998 -799.81756  20.4%  63.6 4258s
  6773  1675     cutoff   43      -664.27998 -799.63879  20.4%  63.8 4279s
  6858  1694 -761.68453   42    2 -664.27998 -798.79461  20.2%  63.8 4351s
  6972  1749     cutoff   43      -664.27998 -798.09468  20.1%  63.9 4452s
  7028  1764 -756.57210   41    2 -664.27998 -798.05182  20.1%  63.9 4464s
  7058  1781 -778.62171   37    3 -664.27998 -797.87759  20.1%  63.9 4534s
  7170  1825     cutoff   42      -664.27998 -797.11548  20.0%  64.1 4618s
  7280  1856     cutoff   42      -664.27998 -796.01427  19.8%  64.3 4698s
  7390  1885     cutoff   42      -664.27998 -795.13058  19.7%  64.3 4805s
  7514  1944     cutoff   41      -664.27998 -794.22455  19.6%  64.4 4926s
  7568  1952     cutoff   42      -664.27998 -793.70312  19.5%  64.5 4935s
  7639  2008     cutoff   43      -664.27998 -793.52694  19.5%  64.4 5053s
  7786  2113 -758.66573   38    2 -664.27998 -793.00004  19.4%  64.1 5202s
  7947  2173     cutoff   43      -664.27998 -792.58835  19.3%  63.9 5332s
  8014  2198     cutoff   42      -664.27998 -792.32584  19.3%  63.7 5364s
  8106  2258 -766.12775   33    2 -664.27998 -792.15441  19.3%  63.5 5499s
  8240  2332 -760.24671   42    2 -664.27998 -791.88296  19.2%  63.4 5640s
  8360  2398     cutoff   43      -664.27998 -791.73098  19.2%  63.3 5783s
  8512  2481     cutoff   25      -664.27998 -791.47476  19.1%  63.3 5925s
  8586  2507     cutoff   43      -664.27998 -791.44487  19.1%  63.1 5959s
  8681  2540 -737.55572   43    2 -664.27998 -791.35827  19.1%  63.1 6087s
  8830  2624     cutoff   44      -664.27998 -791.18368  19.1%  63.0 6241s
  8981  2689 -706.58908   44    2 -664.27998 -790.87583  19.1%  62.9 6381s
  9044  2703 -759.46367   42    2 -664.27998 -790.69798  19.0%  62.9 6396s
  9122  2767     cutoff   45      -664.27998 -790.69149  19.0%  62.9 6528s
  9275  2840     cutoff   38      -664.27998 -790.50382  19.0%  62.7 6694s
  9437  2923 -731.65244   43    2 -664.27998 -790.27335  19.0%  62.6 6850s
  9569  2978     cutoff   44      -664.27998 -790.04205  18.9%  62.6 6999s
  9717  3036 -703.52376   44    2 -664.27998 -789.89677  18.9%  62.5 7159s

Cutting planes:
  Lazy constraints: 337589

Explored 9865 nodes (624815 simplex iterations) in 7220.02 seconds
Thread count was 4 (of 4 available processors)

Solution count 10: -664.28 -649.84 -645.28 ... -449.505

Time limit reached
Best objective -6.642799832076e+02, best bound -7.896858611544e+02, gap 18.8785%

User-callback calls 133232, time in user-callback 3030.71 sec
